letting initialStacks = [27, 49, 8, 26, 23, 18, 47, 29, 40, 2, 17, 13, 3, 50, 43, 34, 28, 48, 30, 41, 4, 10, 11, 1, 36, 44, 39, 12, 24, 33, 46, 51, 5, 16, 20, 21, 19, 32, 14, 37, 38, 42, 22, 9, 31, 45, 25, 15, 6, 7, 35]
